NAME: random_instance_file
TYPE: TSP
COMMENT: comment
DIMENSION: 12
EDGE_WEIGHT_TYPE: EUC_2D
NODE_COORD_SECTION
1 15.0 16.0
2 19.0 11.0
3 18.0 14.0
4 11.0 13.0
5 17.0 19.0
6 11.0 14.0
7 13.0 17.0
8 13.0 13.0
9 15.0 11.0
10 16.0 15.0
11 18.0 16.0
12 18.0 13.0
EOF
